c 1 CONFIG_HELP
c 2 CONFIG_SORT_BIG
c 3 CONFIG_DHCPD
c 4 CONFIG_SYSLOGD
c 5 CONFIG_TAIL
c 6 CONFIG_ID_Z
c 7 CONFIG_UNSHARE
c 8 CONFIG_EGREP
c 9 CONFIG_ID
c 10 CONFIG_RESTORECON
c 11 CONFIG_HELP_EXTRAS
c 12 CONFIG_KILL
c 13 CONFIG_TOYBOX_ICONV
c 14 CONFIG_CP_MORE
c 15 CONFIG_GZIP
c 16 CONFIG_MKE2FS_EXTENDED
c 17 CONFIG_TOYBOX_FIFREEZE
c 18 CONFIG_CP_PRESERVE
c 19 CONFIG_LS_COLOR
c 20 CONFIG_MKE2FS_GEN
c 21 CONFIG_TOYBOX_SHADOW
c 22 CONFIG_LSPCI
c 23 CONFIG_MKFIFO_Z
c 24 CONFIG_TOYBOX_FORK
c 25 CONFIG_GUNZIP
c 26 CONFIG_TOYBOX_UID_USR
c 27 CONFIG_TOYBOX_CONTAINER
c 28 CONFIG_NETCAT_LISTEN
c 29 CONFIG_MKE2FS_LABEL
c 30 CONFIG_SEQ
c 31 CONFIG_SORT_FLOAT
c 32 CONFIG_DECOMPRESS
c 33 CONFIG_SORT
c 34 CONFIG_SU
c 35 CONFIG_CD
c 36 CONFIG_TIMEOUT
c 37 CONFIG_LOGGER
c 38 CONFIG_SETPROP
c 39 CONFIG_GETPROP
c 40 CONFIG_UPTIME
c 41 CONFIG_MKDIR
c 42 CONFIG_INSTALL
c 43 CONFIG_TOYBOX
c 44 CONFIG_TOYBOX_UTMPX
c 45 CONFIG_SLEEP
c 46 CONFIG_TOYBOX_FALLOCATE
c 47 CONFIG_MDEV
c 48 CONFIG_KILLALL5
c 49 CONFIG_TOYBOX_HELP_DASHDASH
c 50 __Root__
c 51 CONFIG_LS
c 52 CONFIG_CHCON
c 53 CONFIG_TIME
c 54 CONFIG_W
c 55 CONFIG_KLOGD_SOURCE_RING_BUFFER
c 56 CONFIG_SULOGIN
c 57 CONFIG_FGREP
c 58 CONFIG_MDEV_CONF
c 59 CONFIG_LOAD_POLICY
c 60 CONFIG_MKDIR_Z
c 61 CONFIG_SLEEP_FLOAT
c 62 CONFIG_TOYBOX_UID_SYS
c 63 CONFIG_SETENFORCE
c 64 CONFIG_LOGIN
c 65 CONFIG_FSFREEZE
c 66 CONFIG_MKNOD_Z
c 67 CONFIG_GREP
c 68 CONFIG_XARGS_PEDANTIC
c 69 CONFIG_WHO
c 70 CONFIG_CP
c 71 CONFIG_TAIL_SEEK
c 72 CONFIG_LSPCI_TEXT
c 73 CONFIG_RUNCON
c 74 CONFIG_TOYBOX_LSM_NONE
c 75 CONFIG_XARGS
c 76 CONFIG_CAT
c 77 CONFIG_TOYBOX_SELINUX
c 78 CONFIG_KLOGD
c 79 CONFIG_MKE2FS
c 80 CONFIG_GZIP_D
c 81 CONFIG_ICONV
c 82 CONFIG_GETENFORCE
c 83 CONFIG_TOYBOX_FLOAT
c 84 CONFIG_MKNOD
c 85 CONFIG_TOYBOX_HELP
c 86 CONFIG_PASSWD
c 87 CONFIG_FALLOCATE
c 88 CONFIG_MV_MORE
c 89 CONFIG_ZCAT
c 90 CONFIG_EXIT
c 91 CONFIG_NETCAT
c 92 CONFIG_MV
c 93 CONFIG_MKFIFO
c 94 CONFIG_TOYBOX_ON_ANDROID
c 95 CONFIG_TOYBOX_SMACK
c 96 CONFIG_MKE2FS_JOURNAL
c 97 CONFIG_CAT_V
c 98 CONFIG_DEBUG_DHCP
c 99 CONFIG_COMPRESS
p cnf 99 196
50 0
50 -57 0
50 -67 0
50 -70 0
-14 50 0
50 -83 0
50 -53 0
50 -69 0
-44 50 0
-11 50 0
-1 50 0
50 -93 0
-23 50 0
50 -74 0
-15 50 0
50 -80 0
-41 50 0
50 -60 0
50 -77 0
50 -95 0
50 -72 0
-22 50 0
50 -65 0
-17 50 0
50 -66 0
50 -84 0
-2 50 0
-33 50 0
-40 50 0
50 -63 0
50 -90 0
-21 50 0
50 -86 0
-35 50 0
-5 50 0
50 -71 0
-26 50 0
-6 50 0
-9 50 0
50 -52 0
50 -54 0
-43 50 0
50 -97 0
50 -76 0
-36 50 0
-24 50 0
-42 50 0
-13 50 0
50 -92 0
50 -88 0
-46 50 0
50 -82 0
-38 50 0
50 -94 0
50 -87 0
50 -61 0
50 -58 0
-47 50 0
50 -73 0
50 -81 0
-25 50 0
-32 50 0
50 -79 0
-20 50 0
50 -56 0
-45 50 0
-7 50 0
-27 50 0
-3 50 0
50 -98 0
-10 50 0
-29 50 0
50 -85 0
-37 50 0
-4 50 0
50 -51 0
-19 50 0
-31 50 0
-18 50 0
50 -59 0
-49 50 0
50 -78 0
50 -55 0
50 -96 0
50 -75 0
50 -68 0
-16 50 0
-12 50 0
-48 50 0
50 -62 0
50 -89 0
50 -64 0
-30 50 0
-8 50 0
50 -99 0
50 -91 0
-28 50 0
-39 50 0
-34 50 0
57 -67 0
-14 70 0
-53 83 0
-57 67 0
44 -69 0
1 -11 0
23 74 -93 0
15 -80 0
41 -60 0
-77 -95 0
22 -72 0
17 -65 0
66 74 -84 0
-2 33 0
-40 44 0
-63 77 0
-90 0
21 -86 0
74 77 95 0
-35 0
5 -71 0
26 0
-6 -74 0
-6 9 0
-52 77 0
44 -54 0
1 -11 43 0
76 -97 0
-36 83 0
24 0
14 -42 70 0
-41 60 74 0
13 0
-14 88 -92 0
46 0
-23 93 0
70 -92 0
77 -82 0
-38 94 0
-11 43 0
-60 -74 0
-88 92 0
46 -87 0
-23 -74 0
-61 83 0
14 -88 0
47 -58 0
14 -42 0
-73 77 0
13 -81 0
-25 32 0
-20 79 0
21 -56 0
21 0
45 -61 0
-7 27 0
27 0
32 -80 0
3 -98 0
-10 77 0
-29 79 0
-1 85 0
43 0
4 -37 0
-19 51 0
-15 -32 80 0
2 -31 0
14 -18 0
-59 77 0
-66 -74 0
-49 85 0
-55 78 0
79 -96 0
-74 -95 0
-66 84 0
-68 75 0
44 0
-16 79 0
12 -48 0
-42 70 0
-74 -77 0
-2 31 -83 0
62 0
32 -89 0
6 -9 74 0
21 -64 0
-94 0
-30 83 0
-8 67 0
8 -67 0
-15 99 0
-31 83 0
-28 91 0
-39 94 0
21 -34 0
-45 61 -83 0
17 0
